NAME = SAfile017,
SIZE = 17,
239,282,74,292,110,352,324,154,528,353,324,250,35,567,61,208,
123,268,140,207,202,53,57,246,199,165,448,518,420,383,240,
243,338,259,232,437,249,332,505,555,264,36,27,372,175,
336,105,391,466,145,745,182,150,184,142,211,108,326,
105,661,314,228,157,360,196,91,55,189,488,412,
34,240,29,349,289,134,309,236,346,530,154,
578,633,426,402,351,257,153,287,120,169,
435,237,638,421,95,297,70,329,297,
483,495,63,390,336,254,267,383,
364,202,289,121,472,685,542,
262,444,29,191,476,196,
77,390,83,80,572,
96,439,112,227,
84,238,301,
47,68,
150